solution status: gap limit reached
objective value:                         148207.73466
y#1                                                 1 	(obj:5700)
y#2                                                 1 	(obj:5700)
y#3                                                 1 	(obj:5700)
y#4                                                 1 	(obj:5700)
y#5                                                 1 	(obj:5700)
y#7                                                 1 	(obj:5700)
y#8                                                 1 	(obj:5700)
y#9                                                 1 	(obj:5700)
y#10                                                1 	(obj:5700)
y#11                                                1 	(obj:5700)
y#12                                                1 	(obj:5700)
y#13                                                1 	(obj:5700)
y#14                                                1 	(obj:5700)
y#16                                                1 	(obj:5700)
y#17                                                1 	(obj:5700)
y#18                                                1 	(obj:5700)
y#20                                                1 	(obj:5700)
y#21                                                1 	(obj:5700)
y#22                                                1 	(obj:5700)
y#23                                                1 	(obj:5700)
y#24                                                1 	(obj:5700)
y#25                                                1 	(obj:5700)
y#26                                                1 	(obj:5700)
y#27                                                1 	(obj:5700)
y#29                                                1 	(obj:5700)
y#30                                                1 	(obj:5700)
x#1#16                                              1 	(obj:0.01462)
x#2#21                                              1 	(obj:0.02295)
x#3#13                                              1 	(obj:0.03349)
x#4#22                                              1 	(obj:0.01513)
x#5#30                                              1 	(obj:0.04165)
x#6#1                                               1 	(obj:0.01768)
x#7#27                                              1 	(obj:0.01785)
x#8#18                                              1 	(obj:0.04471)
x#9#29                                              1 	(obj:0.02278)
x#10#7                                              1 	(obj:0.01683)
x#11#12                                             1 	(obj:0.00425)
x#12#22                                             1 	(obj:0.01887)
x#13#18                                             1 	(obj:0.01581)
x#14#16                                             1 	(obj:0.00272)
x#15#30                                             1 	(obj:0.01377)
x#16#23                                             1 	(obj:0.01003)
x#17#1                                              1 	(obj:0.03094)
x#18#2                                              1 	(obj:0.01003)
x#19#13                                             1 	(obj:0.0136)
x#20#18                                             1 	(obj:0.03162)
x#21#25                                             1 	(obj:0.02176)
x#22#22                                             1 	(obj:0.01479)
x#23#8                                              1 	(obj:0.0306)
x#24#26                                             1 	(obj:0.0238)
x#25#3                                              1 	(obj:0.0272)
x#26#21                                             1 	(obj:0.00323)
x#27#26                                             1 	(obj:0.00391)
x#28#27                                             1 	(obj:0.02584)
x#29#16                                             1 	(obj:0.04352)
x#30#27                                             1 	(obj:0.02312)
x#31#17                                             1 	(obj:0.017)
x#32#16                                             1 	(obj:0.03961)
x#33#2                                              1 	(obj:0.01683)
x#34#17                                             1 	(obj:0.00425)
x#35#11                                             1 	(obj:0.02227)
x#36#8                                              1 	(obj:0.0085)
x#37#14                                             1 	(obj:0.10948)
x#38#1                                              1 	(obj:0.01156)
x#39#8                                              1 	(obj:0.01343)
x#40#11                                             1 	(obj:0.04131)
x#41#4                                              1 	(obj:0.05746)
x#42#23                                             1 	(obj:0.03621)
x#43#27                                             1 	(obj:0.00306)
x#44#1                                              1 	(obj:0.01564)
x#45#12                                             1 	(obj:0.01377)
x#46#7                                              1 	(obj:0.02907)
x#47#26                                             1 	(obj:0.02142)
x#48#4                                              1 	(obj:0.05593)
x#49#3                                              1 	(obj:0.01258)
x#50#20                                             1 	(obj:0.03417)
x#51#23                                             1 	(obj:0.04573)
x#52#25                                             1 	(obj:0.00952)
x#53#16                                             1 	(obj:0.01292)
x#54#26                                             1 	(obj:0.017)
x#55#3                                              1 	(obj:0.01326)
x#56#14                                             1 	(obj:0.03621)
x#57#3                                              1 	(obj:0.02091)
x#58#13                                             1 	(obj:0.02533)
x#59#9                                              1 	(obj:0.01683)
x#60#14                                             1 	(obj:0.08211)
x#61#13                                             1 	(obj:0.00799)
x#62#2                                              1 	(obj:0.00799)
x#63#11                                             1 	(obj:0.04641)
x#64#25                                             1 	(obj:0.02227)
x#65#30                                             1 	(obj:0.0051)
x#66#9                                              1 	(obj:0.01411)
x#67#24                                             1 	(obj:0.02805)
x#68#4                                              1 	(obj:0.01258)
x#69#18                                             1 	(obj:0.00935)
x#70#27                                             1 	(obj:0.01751)
x#71#12                                             1 	(obj:0.00255)
x#72#13                                             1 	(obj:0.03468)
x#73#21                                             1 	(obj:0.017)
x#74#11                                             1 	(obj:0.03791)
x#75#11                                             1 	(obj:0.01819)
x#76#17                                             1 	(obj:0.0068)
x#77#20                                             1 	(obj:0.01615)
x#78#25                                             1 	(obj:0.03213)
x#79#29                                             1 	(obj:0.00306)
x#80#7                                              1 	(obj:0.01088)
x#81#21                                             1 	(obj:0.00374)
x#82#16                                             1 	(obj:0.02006)
x#83#1                                              1 	(obj:0.01003)
x#84#26                                             1 	(obj:0.02142)
x#85#12                                             1 	(obj:0.03876)
x#86#4                                              1 	(obj:0.02125)
x#87#9                                              1 	(obj:0.02703)
x#88#4                                              1 	(obj:0.06358)
x#89#29                                             1 	(obj:0.01955)
x#90#26                                             1 	(obj:0.01462)
x#91#21                                             1 	(obj:0.00476)
x#92#12                                             1 	(obj:0.11917)
x#93#20                                             1 	(obj:0.00238)
x#94#27                                             1 	(obj:0.05967)
x#95#20                                             1 	(obj:0.04386)
x#96#20                                             1 	(obj:0.00544)
x#97#5                                              1 	(obj:0.02414)
x#98#10                                             1 	(obj:0.01819)
x#99#14                                             1 	(obj:0.0748)
x#100#14                                            1 	(obj:0.04165)
x#101#1                                             1 	(obj:0.02278)
x#102#20                                            1 	(obj:0.02346)
x#103#14                                            1 	(obj:0.17884)
x#104#25                                            1 	(obj:0.02006)
x#105#27                                            1 	(obj:0.02023)
x#106#23                                            1 	(obj:0.02125)
x#107#30                                            1 	(obj:0.01462)
x#108#22                                            1 	(obj:0.01938)
x#109#30                                            1 	(obj:0.01768)
x#110#9                                             1 	(obj:0.00391)
x#111#29                                            1 	(obj:0.01088)
x#112#8                                             1 	(obj:0.0289)
x#113#25                                            1 	(obj:0.0085)
x#114#7                                             1 	(obj:0.01632)
x#115#3                                             1 	(obj:0.02601)
x#116#12                                            1 	(obj:0.00578)
x#117#11                                            1 	(obj:0.02618)
x#118#9                                             1 	(obj:0.02091)
x#119#1                                             1 	(obj:0.02941)
x#120#2                                             1 	(obj:0.07446)
x#121#4                                             1 	(obj:0.05066)
x#122#23                                            1 	(obj:0.00663)
x#123#10                                            1 	(obj:0.01326)
x#124#24                                            1 	(obj:0.03162)
x#125#16                                            1 	(obj:0.00935)
x#126#21                                            1 	(obj:0.00986)
x#127#29                                            1 	(obj:0.02805)
x#128#29                                            1 	(obj:0.02499)
x#129#16                                            1 	(obj:0.03434)
x#130#18                                            1 	(obj:0.03978)
x#131#8                                             1 	(obj:0.02601)
x#132#10                                            1 	(obj:0.03944)
x#133#4                                             1 	(obj:0.00459)
x#134#5                                             1 	(obj:0.03077)
x#135#26                                            1 	(obj:0.0017)
x#136#20                                            1 	(obj:0.03757)
x#137#24                                            1 	(obj:0.03689)
x#138#12                                            1 	(obj:0.00935)
x#139#2                                             1 	(obj:0.02193)
x#140#27                                            1 	(obj:0.04539)
x#141#25                                            1 	(obj:0.01666)
x#142#16                                            1 	(obj:0.05236)
x#143#21                                            1 	(obj:0.01819)
x#144#23                                            1 	(obj:0.01887)
x#145#24                                            1 	(obj:0.01173)
x#146#16                                            1 	(obj:0.01343)
x#147#9                                             1 	(obj:0.00952)
x#148#23                                            1 	(obj:0.02771)
x#149#8                                             1 	(obj:0.017)
x#150#23                                            1 	(obj:0.0391)
x#151#24                                            1 	(obj:0.02108)
x#152#7                                             1 	(obj:0.01343)
x#153#18                                            1 	(obj:0.00969)
x#154#17                                            1 	(obj:0.02363)
x#155#7                                             1 	(obj:0.01632)
x#156#29                                            1 	(obj:0.00238)
x#157#29                                            1 	(obj:0.00884)
x#158#18                                            1 	(obj:0.03859)
x#159#27                                            1 	(obj:0.03944)
x#160#22                                            1 	(obj:0.01003)
x#161#22                                            1 	(obj:0.0238)
x#162#1                                             1 	(obj:0.02006)
x#163#21                                            1 	(obj:0.00833)
x#164#10                                            1 	(obj:0.06613)
x#165#26                                            1 	(obj:0.01445)
x#166#26                                            1 	(obj:0.02108)
x#167#30                                            1 	(obj:0.00714)
x#168#12                                            1 	(obj:0.01122)
x#169#8                                             1 	(obj:0.02244)
x#170#21                                            1 	(obj:0.03128)
x#171#25                                            1 	(obj:0.01496)
x#172#16                                            1 	(obj:0.02686)
x#173#4                                             1 	(obj:0.02975)
x#174#18                                            1 	(obj:0.04794)
x#175#29                                            1 	(obj:0.01309)
x#176#3                                             1 	(obj:0.00306)
x#177#4                                             1 	(obj:0.03179)
x#178#7                                             1 	(obj:0.01734)
x#179#3                                             1 	(obj:0.02686)
x#180#30                                            1 	(obj:0.01445)
x#181#20                                            1 	(obj:0.02295)
x#182#5                                             1 	(obj:0.00799)
x#183#7                                             1 	(obj:0.01309)
x#184#5                                             1 	(obj:0.01717)
x#185#12                                            1 	(obj:0.02448)
x#186#18                                            1 	(obj:0.03145)
x#187#23                                            1 	(obj:0.01598)
x#188#10                                            1 	(obj:0.01938)
x#189#23                                            1 	(obj:0.04182)
x#190#26                                            1 	(obj:0.01564)
x#191#29                                            1 	(obj:0.03621)
x#192#7                                             1 	(obj:0.02261)
x#193#3                                             1 	(obj:0.00578)
x#194#25                                            1 	(obj:0.02176)
x#195#10                                            1 	(obj:0.02159)
x#196#5                                             1 	(obj:0.03689)
x#197#2                                             1 	(obj:0.04199)
x#198#24                                            1 	(obj:0.01428)
x#199#4                                             1 	(obj:0.01173)
x#200#5                                             1 	(obj:0.05236)
x#201#22                                            1 	(obj:0.02006)
x#202#14                                            1 	(obj:0.07208)
x#203#24                                            1 	(obj:0.0561)
x#204#2                                             1 	(obj:0.02397)
x#205#2                                             1 	(obj:0.03706)
x#206#9                                             1 	(obj:0.01428)
x#207#20                                            1 	(obj:0.00442)
x#208#16                                            1 	(obj:0.02652)
x#209#12                                            1 	(obj:0.03281)
x#210#13                                            1 	(obj:0.01955)
x#211#2                                             1 	(obj:0.02584)
x#212#7                                             1 	(obj:0.03961)
x#213#8                                             1 	(obj:0.02822)
x#214#30                                            1 	(obj:0.00544)
x#215#17                                            1 	(obj:0.01734)
x#216#23                                            1 	(obj:0.02686)
x#217#21                                            1 	(obj:0.01462)
x#218#29                                            1 	(obj:0.01105)
x#219#8                                             1 	(obj:0.02839)
x#220#25                                            1 	(obj:0.02669)
x#221#8                                             1 	(obj:0.02346)
x#222#12                                            1 	(obj:0.05372)
x#223#22                                            1 	(obj:0.0272)
x#224#11                                            1 	(obj:0.02907)
x#225#24                                            1 	(obj:0.04301)
x#226#11                                            1 	(obj:0.03876)
x#227#14                                            1 	(obj:0.04063)
x#228#27                                            1 	(obj:0.00306)
x#229#1                                             1 	(obj:0.18955)
x#230#30                                            1 	(obj:0.02108)
x#231#27                                            1 	(obj:0.0408)
x#232#17                                            1 	(obj:0.01071)
x#233#2                                             1 	(obj:0.03536)
x#234#3                                             1 	(obj:0.01666)
x#235#10                                            1 	(obj:0.09367)
x#236#13                                            1 	(obj:0.06052)
x#237#5                                             1 	(obj:0.03689)
x#238#2                                             1 	(obj:0.05134)
x#239#17                                            1 	(obj:0.01326)
x#240#30                                            1 	(obj:0.01428)
x#241#17                                            1 	(obj:0.00782)
x#242#8                                             1 	(obj:0.01921)
x#243#4                                             1 	(obj:0.00663)
x#244#1                                             1 	(obj:0.0374)
x#245#9                                             1 	(obj:0.02465)
x#246#23                                            1 	(obj:0.01003)
x#247#5                                             1 	(obj:0.02839)
x#248#9                                             1 	(obj:0.03298)
x#249#14                                            1 	(obj:0.09996)
x#250#25                                            1 	(obj:0.06732)
x#251#24                                            1 	(obj:0.02465)
x#252#3                                             1 	(obj:0.02125)
x#253#24                                            1 	(obj:0.02176)
x#254#11                                            1 	(obj:0.03077)
x#255#9                                             1 	(obj:0.01003)
x#256#10                                            1 	(obj:0.03332)
x#257#20                                            1 	(obj:0.02567)
x#258#1                                             1 	(obj:0.01615)
x#259#17                                            1 	(obj:0.00833)
x#260#30                                            1 	(obj:0.05066)
x#261#17                                            1 	(obj:0.01258)
x#262#13                                            1 	(obj:0.02601)
x#263#18                                            1 	(obj:0.04811)
x#264#25                                            1 	(obj:0.01156)
x#265#11                                            1 	(obj:0.0238)
x#266#13                                            1 	(obj:0.03859)
x#267#26                                            1 	(obj:0.01258)
x#268#11                                            1 	(obj:0.0119)
x#269#20                                            1 	(obj:0.01309)
x#270#13                                            1 	(obj:0.02618)
x#271#21                                            1 	(obj:0.01938)
x#272#17                                            1 	(obj:0.00969)
x#273#20                                            1 	(obj:0.00544)
x#274#22                                            1 	(obj:0.03366)
x#275#27                                            1 	(obj:0.01445)
x#276#22                                            1 	(obj:0.0221)
x#277#24                                            1 	(obj:0.01819)
x#278#29                                            1 	(obj:0.00374)
x#279#10                                            1 	(obj:0.00153)
x#280#21                                            1 	(obj:0.02618)
x#281#5                                             1 	(obj:0.02091)
x#282#9                                             1 	(obj:0.04828)
x#283#18                                            1 	(obj:0.02788)
x#284#13                                            1 	(obj:0.0357)
x#285#26                                            1 	(obj:0.01173)
x#286#11                                            1 	(obj:0.03621)
x#287#5                                             1 	(obj:0.01938)
x#288#13                                            1 	(obj:0.02074)
x#289#9                                             1 	(obj:0.01309)
x#290#10                                            1 	(obj:0.017)
x#291#3                                             1 	(obj:0.03315)
x#292#22                                            1 	(obj:0.01683)
x#293#2                                             1 	(obj:0.02142)
x#294#3                                             1 	(obj:0.07378)
x#295#7                                             1 	(obj:0.01972)
x#296#5                                             1 	(obj:0.01275)
x#297#1                                             1 	(obj:0.04114)
x#298#10                                            1 	(obj:0.01207)
x#299#10                                            1 	(obj:0.00918)
x#300#24                                            1 	(obj:0.04182)
